(declare-const pc Real)
(declare-const nw Real)
(declare-const d Real)
(declare-const md Real)
(declare-const epsilon Real)
(declare-const na Real)
(declare-const nb Real)
(declare-const roa Real)
(declare-const rob Real)
(declare-const pa Real)
(declare-const pb Real)
(declare-const mu Real)
(assert (= pc 0.34))
(assert (>= nw 16.0))
(assert (<= nw 64.0))
(assert (>= d 4.0))
(assert (<= d 64.0))
(assert (>= md 0.001))
(assert (<= md 15.0))
(assert (= epsilon 0.0))
(assert (= na (* pc nw)))
(assert (= nb (- nw na)))
(assert (= roa (^ 10.0 9.0)))
(assert (= rob (* 4.0 (^ 10.0 3.0))))
(assert (= pa (- 1 (exp (- (* (* roa (/ na d)) md))))))
(assert (>= pb 0.9999))
(assert (= mu (* pb (- 1 (* 0.5 pa)))))
(assert (<= (^ (- 1 mu) 6.0) (^ 10.0 -6.0)))

